(declare-const y0 Real)
(declare-const y1 Real)
(declare-const y2 Real)
(declare-const y3 Real)
(declare-const y4 Real)
(declare-const y5 Real)
(declare-const y6 Real)
(declare-const y7 Real)
(declare-const y8 Real)
(declare-const y9 Real)
(declare-const y10 Real)
(declare-const y11 Real)
(declare-const y12 Real)
(declare-const y13 Real)
(declare-const y14 Real)
(declare-const y15 Real)
(declare-const y16 Real)
(declare-const y17 Real)
(assert (< y1 86))
(assert (< 29 y9))
(assert (= (+ 30 73) 56))
(assert (= y10 y17))
(assert (< y4 46))
(assert (= y3 y4))
(assert (= 37 y5))
(assert (= (= true true) (= (= 97 68) true)))
(assert (= (< y16 90) true))
(check-sat)
